S = 9;
start = [|0,0,41,77,0,5,0,81,3,0,0,0,0,0,0,0,27,0,1,0,0,0,0,38,48,0,0,0,0,0,0,51,0,0,0,0,0,0,0,0,0,78,0,0,2,0,0,61,0,0,0,0,0,62,71,0,0,0,0,0,50,0,0,0,56,0,0,0,0,55,0,0,0,0,0,0,35,0,0,0,0|
0,0,0,24,0,0,0,71,39,0,0,0,0,0,0,0,0,0,0,0,58,0,7,0,46,0,0,0,0,0,0,0,19,0,0,0,0,0,12,0,64,0,0,0,10,0,0,0,0,16,0,0,0,0,0,0,0,37,0,0,0,0,0,0,6,0,0,67,14,0,0,50,61,0,79,9,28,0,0,0,0|
0,0,0,0,0,0,0,0,0,0,0,0,0,31,0,0,0,0,0,0,0,0,0,53,44,0,0,0,0,63,0,0,0,0,0,7,50,0,0,77,0,55,0,0,67,0,0,0,0,35,30,45,52,0,16,72,0,0,80,27,0,0,0,10,0,0,8,0,0,9,0,0,15,0,0,0,0,0,25,57,81|
0,0,0,0,0,0,0,16,0,0,0,0,0,0,0,0,0,0,0,0,0,0,12,0,18,0,54,39,0,0,79,45,0,0,0,0,13,7,0,0,0,0,49,0,56,0,0,0,0,0,0,0,0,76,0,74,0,0,43,0,0,0,0,0,0,0,81,0,11,0,0,0,0,0,30,0,0,0,0,0,3|
0,2,50,0,0,0,0,0,0,0,0,0,75,24,0,54,68,0,3,0,0,0,0,0,22,0,0,0,0,0,11,0,0,76,0,0,0,0,47,0,0,0,0,0,0,14,81,0,0,0,0,21,0,38,0,0,0,0,59,0,67,65,34,44,0,0,0,0,0,0,0,4,0,0,52,42,0,23,0,0,0|
47,0,0,0,58,6,0,0,0,45,0,0,61,0,0,0,0,0,62,0,0,41,0,0,0,0,25,0,0,0,0,0,0,0,32,0,0,0,70,0,0,0,0,0,22,29,0,0,0,0,0,0,0,0,0,52,64,0,0,0,0,0,15,30,21,0,0,0,0,12,0,0,0,33,0,0,0,0,13,19,0|
0,0,0,10,0,0,44,0,0,0,2,0,21,0,0,0,4,0,0,0,0,56,0,0,0,0,0,0,0,34,3,0,0,0,0,0,0,0,0,58,0,0,0,0,0,0,53,40,0,0,0,13,0,6,0,62,0,0,0,0,0,0,0,0,0,0,0,19,48,0,46,0,0,39,0,0,49,0,0,0,22|
0,0,0,54,29,0,0,0,13,0,0,0,69,0,53,0,0,42,0,66,0,0,0,0,49,0,0,0,73,4,0,62,0,0,16,28,0,19,0,0,0,0,0,0,0,0,0,37,0,0,43,65,0,7,0,0,0,3,0,0,0,0,0,2,0,0,74,0,0,0,0,79,0,0,0,0,0,0,0,0,8|
23,0,0,12,0,0,0,0,0,3,9,0,0,81,0,0,0,0,0,19,0,0,0,0,64,2,0,0,0,0,0,0,0,65,8,61,28,0,37,0,0,35,79,0,36,0,75,0,0,0,0,0,18,59,0,58,0,0,0,0,0,0,13,57,0,40,0,0,0,0,77,0,0,78,55,0,0,0,60,0,10|
0,0,0,4,0,0,0,0,0,0,5,0,0,40,0,62,0,70,0,0,0,0,69,0,0,0,34,22,80,54,0,38,18,0,47,31,11,0,0,0,0,0,0,0,66,0,0,0,0,0,0,0,0,0,0,65,0,0,0,0,0,0,0,60,0,0,79,0,0,0,52,61,0,0,0,0,0,0,0,0,0|
0,0,79,0,23,0,0,0,0,0,0,43,0,0,0,0,0,54,0,0,31,0,0,0,0,0,0,0,57,0,0,15,0,0,0,0,26,3,51,0,67,0,0,0,70,0,0,0,0,0,77,0,0,29,22,0,0,0,0,14,0,10,0,41,69,78,0,0,0,0,24,0,0,0,0,0,0,0,0,0,18|
0,0,0,0,0,0,0,28,0,0,0,35,0,0,0,0,7,0,10,0,0,0,0,0,0,0,24,0,0,0,2,0,0,0,0,0,0,0,0,0,0,71,0,64,0,0,68,44,0,0,0,0,0,0,0,54,60,0,79,0,0,51,0,0,0,0,11,0,0,0,0,27,0,0,0,0,0,0,0,0,0|
0,0,0,0,0,0,0,0,0,0,42,9,0,79,0,0,0,0,0,0,0,0,0,0,0,0,0,0,0,0,32,0,0,0,68,45,0,38,0,0,0,43,0,0,63,4,0,0,0,0,0,31,0,61,28,0,0,0,0,15,2,0,0,0,0,0,0,0,0,0,0,22,0,0,0,0,67,57,0,0,19|
0,0,0,0,0,0,0,0,31,0,0,48,0,0,0,0,67,0,51,0,0,0,0,0,17,0,0,0,0,0,0,0,34,0,0,0,0,0,0,10,72,0,20,77,0,0,0,0,0,0,0,7,41,0,0,0,0,0,0,0,44,0,52,0,80,0,0,59,0,0,30,0,0,0,0,45,32,15,0,0,0|
0,0,64,17,0,0,0,0,0,0,0,0,0,0,22,0,51,31,0,57,1,0,0,0,0,0,0,0,0,75,0,0,0,0,0,0,0,0,4,0,0,0,0,0,0,0,0,36,0,0,21,0,0,0,0,0,0,32,0,12,56,0,43,73,0,25,0,0,34,0,0,0,0,0,0,0,0,0,0,27,0|
0,69,47,0,0,0,0,0,0,0,0,0,0,0,60,0,0,0,0,0,46,0,0,30,0,0,0,25,37,0,0,0,0,0,0,26,0,9,0,0,0,0,0,0,0,62,43,15,0,0,0,0,0,0,0,0,0,0,0,0,72,0,0,0,32,0,66,0,0,0,0,56,0,0,0,0,0,0,0,7,0|
0,59,0,45,60,0,0,0,0,0,0,56,4,0,69,0,61,0,0,0,12,0,0,0,0,0,0,0,0,0,0,14,0,0,0,0,0,0,0,8,0,0,0,42,7,0,0,32,0,65,11,0,0,0,0,0,0,0,0,0,0,0,0,0,0,0,0,3,72,0,0,36,0,0,23,0,0,0,0,0,58|
0,0,0,48,41,65,67,51,0,0,0,0,0,23,0,0,0,0,0,0,0,0,0,0,0,81,0,0,0,0,12,0,0,0,0,0,0,0,0,0,0,0,0,0,0,0,0,64,69,73,0,20,56,0,0,0,0,8,0,0,0,0,0,0,0,31,0,0,0,0,0,0,17,26,0,0,0,80,0,44,0|
0,77,0,19,0,0,0,0,62,0,0,69,30,60,0,0,0,2,68,0,26,43,0,0,0,0,0,0,0,0,45,70,0,0,0,0,0,0,16,0,0,0,28,0,0,0,0,0,63,0,0,0,0,0,0,0,29,80,58,0,0,76,0,7,0,54,0,0,0,0,0,67,0,0,34,75,0,0,0,12,0|
0,0,0,0,0,0,0,0,0,49,0,0,26,0,3,67,0,35,0,0,0,0,0,0,0,0,0,53,44,0,39,0,11,0,56,0,0,0,0,18,0,0,0,0,0,78,5,0,47,0,0,51,0,71,0,50,0,0,7,0,28,19,0,0,0,0,0,16,12,0,0,0,0,0,0,0,0,0,0,0,0|
0,0,0,0,0,0,0,0,0,34,0,25,0,16,0,0,0,81,0,0,0,0,1,0,0,69,55,0,0,0,0,0,0,0,0,0,0,52,0,0,63,0,0,0,0,0,0,0,0,0,57,49,3,80,73,0,51,0,0,42,53,0,0,0,0,0,0,0,0,0,0,0,21,0,7,0,0,0,78,0,0|
0,0,0,0,0,73,0,69,70,0,0,0,0,0,0,0,59,0,2,0,0,0,45,65,0,0,0,50,0,0,0,21,0,0,0,0,0,58,0,0,0,0,0,0,0,0,28,0,7,0,0,43,0,0,78,0,0,33,0,0,0,0,0,77,0,0,0,0,0,0,0,0,0,0,0,11,0,0,0,0,48|
0,0,39,0,0,0,42,9,0,0,0,0,0,0,0,0,0,0,72,34,0,0,0,0,67,0,40,0,0,0,0,0,0,27,0,0,0,0,0,73,0,0,5,51,0,0,0,0,65,0,0,0,0,0,68,0,44,12,0,0,38,0,24,32,0,0,0,56,0,0,0,0,0,0,0,55,0,0,0,0,0|
0,12,0,0,68,0,0,0,0,0,0,33,41,0,0,0,0,0,79,0,0,0,0,0,0,80,56,0,0,0,76,0,0,0,0,62,7,0,0,0,26,0,0,11,60,0,0,0,0,0,69,0,0,0,0,0,3,0,0,0,0,0,47,37,15,0,25,50,29,0,0,0,67,0,0,0,0,9,54,52,0|
24,0,36,57,0,0,31,21,40,0,0,0,17,0,0,46,0,0,20,0,0,0,33,0,7,0,0,73,0,0,0,0,60,0,0,0,0,0,0,0,0,0,0,0,0,0,1,0,68,0,0,41,0,0,0,0,0,39,0,48,0,0,0,0,0,0,0,0,0,0,0,49,0,0,81,0,5,58,0,0,0|
7,0,23,56,0,76,0,0,72,0,47,0,0,0,0,0,58,37,0,54,0,6,0,0,51,0,0,20,0,67,0,0,0,0,0,0,0,0,0,0,0,0,0,24,14,0,0,0,0,0,0,44,0,0,0,0,0,0,1,81,0,0,0,0,0,0,45,0,0,0,0,0,0,22,0,17,0,0,0,62,0|
0,54,0,16,0,52,0,0,0,0,0,22,0,7,0,78,0,0,53,0,49,0,0,0,0,4,0,0,0,0,0,0,0,0,0,0,0,71,0,0,0,0,0,0,13,0,0,0,79,0,0,0,0,18,0,59,0,0,0,0,69,0,60,21,0,0,0,0,0,0,51,0,0,0,0,0,31,33,64,0,44|
0,0,0,0,0,0,0,0,0,0,75,63,0,0,8,0,28,0,0,0,0,0,0,0,0,79,0,0,0,1,4,0,0,0,0,0,0,49,0,69,0,0,0,0,0,0,0,0,0,0,0,0,0,48,32,0,0,0,0,0,29,46,0,0,0,0,0,64,0,0,6,0,0,0,0,67,0,81,0,0,33|
0,0,0,0,0,0,0,0,0,29,0,0,0,0,19,0,0,38,7,0,0,34,27,0,0,22,0,0,9,0,28,0,0,0,0,0,76,66,0,0,70,54,0,0,0,0,0,0,15,40,36,0,81,4,35,20,0,0,0,0,0,42,44,53,0,0,0,0,0,45,16,5,71,31,0,0,50,0,47,78,0|
0,0,69,0,0,55,0,0,67,66,0,0,0,0,34,77,0,0,30,0,32,0,0,16,5,0,0,0,0,0,0,0,0,0,74,0,23,0,0,7,0,0,0,18,0,0,0,0,0,0,17,0,0,0,0,0,0,62,0,0,0,0,12,0,0,21,71,0,13,0,0,29,36,40,0,0,0,0,0,45,0|
0,0,62,2,0,77,53,0,0,0,78,39,0,0,0,0,0,0,0,0,4,0,0,0,0,0,60,0,0,0,0,0,32,0,0,0,0,0,0,28,45,0,30,0,0,0,0,59,35,0,0,47,0,0,0,0,0,0,0,0,0,0,57,0,0,0,0,0,40,0,0,63,79,0,0,0,0,27,0,0,0|
0,0,0,0,38,0,0,0,0,0,0,0,0,0,44,74,33,0,54,0,0,39,0,0,0,0,0,34,0,64,0,0,0,43,0,0,0,0,0,0,0,0,59,0,73,45,77,0,0,0,0,0,0,37,0,0,0,0,0,18,0,0,0,0,58,0,0,0,0,0,0,0,0,13,0,0,30,0,69,0,32|
0,0,0,79,0,0,0,35,0,13,80,0,40,0,0,0,0,0,49,62,0,0,0,0,0,0,0,14,20,0,41,81,0,0,36,0,0,0,0,60,3,0,0,21,0,0,0,19,0,42,0,0,0,1,0,69,53,0,47,0,0,0,0,0,0,0,0,0,0,0,0,0,0,9,0,0,0,0,73,0,0|
0,76,0,0,0,0,0,0,0,0,70,37,0,0,4,0,0,0,31,0,0,0,57,0,0,1,0,27,10,0,0,0,44,0,0,0,29,0,0,0,0,0,62,0,0,67,0,69,0,0,0,8,0,0,0,68,0,0,0,0,0,17,0,0,0,47,0,0,0,61,0,0,0,0,0,0,0,18,0,0,0|
0,0,0,0,0,0,0,0,0,0,31,64,0,65,0,0,0,0,0,0,40,46,0,0,0,0,0,38,0,76,0,55,0,0,0,80,79,0,0,32,0,0,12,53,0,3,0,70,0,34,0,0,0,30,0,66,0,6,45,0,9,2,0,0,0,0,0,0,0,0,0,42,0,62,17,0,23,0,0,0,4|
0,0,0,0,0,0,0,0,0,0,20,0,45,0,0,48,0,0,0,0,0,44,0,0,0,0,0,0,67,66,0,0,0,0,0,0,31,0,0,0,25,0,0,0,0,0,0,2,0,0,18,50,0,0,0,0,26,28,73,0,64,0,0,0,33,0,0,0,0,0,0,38,0,60,0,0,0,59,0,0,0|
0,0,0,0,0,27,0,0,9,61,0,0,0,0,0,0,0,23,0,0,0,0,34,0,0,0,0,0,0,0,0,0,0,0,0,0,0,0,0,0,0,0,0,0,0,75,0,6,13,0,0,0,0,0,81,0,0,0,0,10,0,0,0,0,71,12,0,0,79,63,0,0,49,0,0,0,24,38,0,0,0|
10,0,55,0,78,0,0,0,79,0,13,0,0,0,0,0,0,0,12,17,0,0,0,0,0,0,0,0,0,0,0,0,0,0,0,0,0,0,0,0,66,0,0,0,0,0,0,0,0,0,0,0,0,0,0,0,0,0,0,53,70,0,0,0,0,0,0,0,0,67,22,0,0,0,0,34,0,0,0,0,0|
0,0,0,0,0,0,0,39,0,15,8,0,0,75,0,0,0,0,40,0,22,0,0,6,0,0,0,0,0,0,0,0,0,68,0,4,0,0,7,0,0,0,70,0,0,0,0,77,0,0,0,0,0,63,0,0,0,0,0,0,0,0,0,0,0,0,27,0,0,0,17,0,0,1,0,19,0,0,0,0,60|
20,0,0,0,0,0,62,0,0,0,0,0,0,0,0,0,0,0,0,35,0,10,0,0,0,33,0,0,0,0,19,0,24,0,0,0,0,0,0,0,0,0,0,0,3,0,0,0,27,0,9,0,0,0,0,0,0,0,0,44,73,0,0,6,0,0,0,0,0,0,0,0,0,43,0,7,0,79,32,0,0|
70,0,0,0,0,2,0,1,0,0,0,0,0,0,6,0,38,0,0,0,0,54,0,0,0,0,0,0,0,40,0,58,0,0,14,0,0,0,0,0,0,50,0,0,0,0,0,0,0,0,0,29,0,0,0,0,0,7,0,0,0,18,0,0,0,0,0,37,0,0,28,0,0,0,0,0,0,0,67,0,0|
0,0,14,0,0,0,0,0,0,0,4,54,0,0,0,0,0,0,0,53,0,20,67,0,0,0,16,0,0,0,0,52,63,0,0,0,0,0,71,0,0,77,11,0,0,0,0,81,0,0,0,0,0,0,15,0,0,78,0,0,0,0,0,0,0,0,40,66,0,0,43,0,0,29,0,0,0,0,0,0,0|
0,0,0,0,0,57,0,15,0,0,0,0,0,0,0,42,0,9,0,56,71,21,0,0,0,0,1,0,0,0,0,0,0,13,0,0,34,0,0,0,0,0,0,45,0,10,0,0,0,0,0,0,0,26,0,0,8,0,0,0,0,0,0,47,0,0,0,0,59,0,0,0,0,0,0,0,12,0,30,0,0|
0,0,0,71,0,0,49,0,37,0,0,0,0,0,0,0,21,0,0,0,0,0,73,0,0,0,0,0,79,62,0,0,25,0,0,0,0,0,0,0,0,0,58,55,46,0,0,0,0,0,0,0,0,22,42,0,0,0,0,39,12,0,0,0,64,0,50,0,0,0,0,0,0,0,0,0,0,61,0,13,0|
0,0,0,0,0,0,0,0,0,78,0,0,0,0,0,0,0,48,0,0,0,0,0,0,0,70,75,0,0,43,54,0,0,44,0,0,0,0,69,0,0,0,0,0,0,58,0,79,0,8,0,52,0,5,0,0,1,0,50,34,0,21,0,0,0,0,41,0,61,0,0,0,0,66,0,0,0,0,0,0,0|
0,56,0,0,0,0,0,0,0,0,0,0,0,0,46,69,0,0,0,67,28,23,4,0,0,0,0,0,0,0,0,0,0,0,0,0,0,0,0,0,51,79,77,0,0,21,0,0,17,0,0,9,0,0,0,40,11,0,0,0,66,0,0,0,0,0,39,0,70,0,0,0,80,0,72,0,0,78,0,0,0|
8,0,12,0,0,0,5,0,33,0,29,0,0,0,0,0,0,0,0,0,0,53,68,0,0,0,0,0,60,26,80,0,38,10,57,0,0,39,0,0,69,0,71,0,0,0,47,0,0,0,31,0,0,43,0,55,54,58,0,0,0,0,0,0,72,0,52,0,0,0,65,0,56,0,0,0,0,0,0,0,0|
0,0,76,29,0,0,7,25,36,0,0,0,38,0,0,0,0,0,0,0,0,0,0,0,9,40,0,0,0,0,77,0,23,0,0,14,0,64,52,0,0,0,0,0,0,0,0,26,0,0,0,0,80,15,0,0,67,45,16,0,0,33,0,0,0,0,0,21,0,51,0,18,0,0,0,4,0,0,0,0,0|
0,0,54,40,0,0,0,0,0,0,0,0,0,0,20,0,0,16,0,0,0,0,0,0,0,0,46,0,0,36,0,0,0,0,0,0,0,55,35,0,0,0,0,0,74,41,0,0,0,0,23,38,0,0,0,0,0,0,6,0,0,0,10,0,0,0,0,0,4,0,29,0,0,0,0,0,53,71,17,0,0|
77,0,0,0,27,0,23,0,0,0,0,0,0,8,0,0,0,0,38,0,0,0,47,0,25,0,0,6,0,0,13,0,0,0,0,0,0,0,0,0,0,0,0,33,0,5,0,0,0,0,0,30,0,0,0,0,0,0,0,68,20,71,4,0,2,0,0,0,44,0,12,0,0,0,0,22,0,0,0,0,40|
0,0,0,0,0,0,0,0,0,0,0,0,0,0,0,0,0,41,0,0,76,0,8,0,19,43,0,0,0,78,0,0,0,0,0,0,0,62,42,0,0,7,0,0,0,0,25,0,0,0,0,0,0,0,0,0,0,0,48,0,61,0,0,56,0,0,0,24,0,0,0,0,0,0,29,81,0,0,0,20,0|
0,0,74,0,47,0,55,0,0,0,43,0,13,14,0,0,0,0,70,2,0,0,0,0,0,0,0,0,0,0,9,0,0,0,0,0,58,0,0,46,0,0,0,0,0,0,48,29,18,0,0,0,32,68,0,41,42,81,0,0,0,0,5,76,1,0,0,0,0,0,0,0,0,0,49,0,25,0,0,67,0|
0,0,0,0,0,69,0,0,0,0,64,0,0,0,0,0,0,51,0,0,0,0,22,24,55,0,71,0,0,0,61,47,45,5,0,0,25,0,0,0,0,16,0,0,0,0,0,0,46,0,33,0,0,0,0,0,31,35,0,7,0,0,65,0,0,0,38,0,0,54,0,0,28,68,0,0,9,0,6,70,0|
0,0,0,0,0,0,0,0,0,75,0,0,54,0,31,71,0,19,0,0,0,0,5,0,27,0,0,0,0,0,68,0,0,0,0,2,0,0,0,48,0,0,0,65,18,0,70,0,40,0,0,0,0,0,0,0,0,0,0,0,0,0,0,67,0,0,0,73,0,0,0,0,0,44,0,0,52,0,0,10,0|
0,55,10,3,0,0,0,0,0,37,58,0,0,0,13,0,0,77,0,0,0,0,0,0,74,0,0,41,19,0,0,0,0,73,0,0,0,0,0,53,0,70,0,75,0,0,0,62,0,0,0,0,4,0,0,27,0,0,38,0,81,50,0,0,45,0,0,0,0,0,34,0,0,0,0,0,0,26,61,72,0|
0,0,0,0,0,0,0,67,52,68,0,0,7,56,0,0,0,0,0,0,0,0,25,48,0,60,0,0,34,0,69,0,0,40,0,44,8,51,22,0,0,0,0,0,0,81,26,0,0,0,0,0,0,0,53,18,0,0,0,0,0,0,0,0,0,64,0,0,46,0,47,0,0,0,0,0,0,66,0,36,0|
69,26,0,0,0,0,0,0,0,31,0,0,0,52,0,0,0,0,32,0,0,0,43,0,0,0,66,0,0,0,0,0,0,0,0,0,55,0,0,0,0,0,0,44,49,0,19,0,0,36,0,0,0,0,0,78,0,0,0,0,80,28,8,0,0,0,0,0,37,33,0,0,70,0,0,48,0,0,40,0,0|
0,27,0,0,0,0,0,0,0,0,0,0,0,0,0,0,0,0,0,38,29,0,9,0,69,0,0,0,0,0,0,12,70,0,0,0,0,0,0,0,40,0,0,0,0,0,0,0,0,0,76,0,0,42,36,0,0,0,0,0,0,0,0,0,26,0,0,0,0,20,0,65,0,58,68,0,0,0,0,75,6|
0,0,0,0,0,0,25,0,0,0,0,67,0,0,78,29,34,0,56,46,0,33,0,0,0,31,0,0,0,0,49,0,4,0,0,23,0,0,0,66,48,0,41,0,32,0,20,75,0,22,6,0,0,0,0,0,0,0,0,0,51,0,21,0,0,0,0,0,39,0,0,0,0,57,28,0,0,30,0,0,0|
0,6,0,0,0,80,0,0,0,0,0,0,0,4,0,0,0,0,0,27,0,0,0,0,0,0,0,58,0,0,0,0,0,0,0,0,18,0,73,0,0,0,0,0,0,74,0,23,0,70,0,0,0,0,0,0,0,0,0,0,0,0,0,0,0,75,0,0,0,0,0,0,0,0,0,0,0,0,0,0,0|
0,0,0,0,31,0,15,44,0,0,0,0,0,33,0,0,0,0,0,0,0,0,0,0,0,0,0,0,0,0,0,0,36,0,0,0,0,0,0,2,0,42,0,0,0,0,30,0,0,55,46,0,0,0,0,0,0,0,0,56,0,0,0,0,63,13,0,0,0,0,0,6,0,0,0,0,41,0,74,35,0|
0,0,0,0,21,0,0,0,0,0,0,47,0,0,26,0,0,0,0,52,0,0,0,0,0,0,0,0,43,0,0,0,0,0,51,0,0,0,0,0,20,0,0,0,0,18,61,0,0,0,0,0,0,0,0,0,9,0,0,60,62,0,0,0,0,0,15,0,0,0,0,0,0,0,0,0,0,14,22,0,0|
0,0,0,23,0,0,0,0,0,0,0,0,43,50,40,0,0,28,75,55,0,0,0,0,0,0,5,0,0,0,0,46,54,0,0,0,57,0,0,0,10,0,0,6,0,0,0,16,0,48,0,0,0,0,65,64,0,67,0,0,0,26,0,0,0,0,30,0,0,7,0,0,0,0,0,0,0,0,0,0,0|
62,0,0,0,0,0,0,0,0,0,0,0,0,0,72,61,0,7,0,0,0,42,0,57,0,0,35,0,0,0,0,0,0,0,0,0,0,0,0,0,47,0,56,0,0,0,0,0,0,80,0,0,0,77,0,9,0,71,0,0,0,6,75,0,3,73,0,0,0,0,0,0,0,0,0,0,18,0,48,0,0|
0,0,0,0,55,0,52,53,0,0,56,0,11,0,0,0,0,0,0,0,0,0,0,62,0,0,39,0,0,0,0,0,8,77,0,13,10,20,0,0,74,0,0,79,0,0,0,0,31,0,59,0,0,0,0,0,0,25,0,0,43,0,0,22,0,0,0,32,68,0,0,24,0,0,61,0,0,0,0,0,67|
0,0,61,0,1,0,0,0,0,18,0,0,80,0,0,79,14,0,19,5,0,31,0,0,0,0,0,33,0,32,23,0,0,0,7,0,0,0,60,0,0,0,0,0,0,0,0,0,0,0,0,70,0,0,0,28,0,17,74,40,0,0,0,0,0,0,0,0,81,0,0,0,0,0,0,0,0,16,55,0,0|
0,0,0,0,0,0,0,31,50,0,0,0,22,35,0,0,0,0,0,37,0,0,0,0,0,44,0,0,0,0,0,19,79,0,0,40,0,0,77,0,21,0,0,0,0,11,51,0,81,0,52,0,0,0,64,0,0,0,57,0,8,0,0,29,0,0,61,0,0,0,71,0,0,0,56,47,4,0,5,32,49|
12,0,0,0,0,0,69,0,56,0,0,45,0,0,0,68,0,20,25,9,0,66,0,0,0,0,0,0,0,0,0,0,0,0,0,0,2,0,0,11,0,3,50,13,0,0,0,0,0,0,0,40,0,0,0,0,18,53,0,0,0,0,0,0,0,0,0,0,0,0,0,0,0,0,0,0,0,0,21,8,38|
0,0,0,65,0,0,59,0,0,0,0,0,0,9,54,0,0,0,0,0,0,0,0,4,0,53,0,0,0,0,0,6,31,0,67,70,0,35,28,0,18,0,0,0,0,0,0,0,72,0,0,0,0,39,0,0,0,0,81,0,33,0,0,0,0,48,0,0,0,0,0,0,0,0,37,0,0,0,0,0,0|
0,0,0,0,72,19,0,0,30,0,0,0,0,0,27,0,0,0,0,0,0,0,20,0,0,0,0,0,0,0,55,0,0,0,0,0,0,0,0,0,0,0,0,0,0,0,2,0,53,0,48,0,0,0,0,0,58,0,0,0,0,0,0,0,0,0,0,0,0,40,45,13,0,0,0,12,0,0,0,0,0|
0,0,13,76,0,0,26,0,0,28,0,0,0,0,0,0,0,30,15,0,56,69,71,0,0,55,0,0,0,0,27,0,0,78,0,0,64,0,0,0,0,0,66,0,0,0,0,0,0,0,58,0,0,0,0,0,0,11,0,0,0,52,0,59,0,0,0,0,6,0,0,0,0,0,0,0,0,0,0,0,57|
0,0,0,11,0,33,0,0,0,76,0,0,0,0,0,0,0,0,0,0,0,0,21,0,12,34,0,52,0,0,58,0,0,0,0,0,0,0,0,0,0,0,0,0,59,30,73,25,0,0,0,0,0,0,37,0,0,0,0,0,24,0,66,5,0,0,0,0,0,0,44,0,78,0,0,0,0,19,0,0,0|
16,43,67,0,0,0,0,0,0,58,61,3,32,72,0,63,10,0,0,0,8,0,41,0,0,0,0,0,55,5,0,4,0,0,0,0,0,0,0,52,0,0,40,0,0,0,0,0,0,28,0,0,47,0,0,0,0,0,0,0,0,0,0,0,0,0,0,0,0,0,0,19,0,0,0,0,0,60,0,0,37|
0,0,65,0,0,59,35,61,0,0,0,0,52,0,77,0,0,0,0,0,0,0,0,0,0,0,36,23,25,0,62,0,0,0,0,0,0,0,11,0,57,0,0,0,0,0,29,0,0,0,0,37,0,64,0,0,0,48,0,0,0,67,0,0,0,44,0,0,0,0,75,0,2,0,0,0,0,0,28,18,0|
0,0,0,0,2,0,0,7,0,0,0,0,48,18,0,19,0,0,0,0,0,0,26,0,71,0,0,0,0,0,0,0,0,50,17,60,0,0,62,0,0,0,0,0,9,0,6,0,0,0,0,0,0,0,0,0,81,36,44,0,0,0,31,0,0,0,0,27,0,0,0,0,0,0,0,8,0,0,0,0,0|
0,0,11,0,10,0,76,42,0,0,28,0,34,0,0,0,0,33,0,0,0,0,0,1,0,0,0,0,0,0,0,0,0,0,0,0,0,0,18,0,0,26,0,0,0,0,0,0,0,0,16,27,0,0,2,0,0,0,0,0,0,0,3,0,61,0,0,0,0,0,0,0,0,0,35,0,79,44,0,0,0|
0,81,71,0,0,0,0,0,60,8,0,0,0,0,0,43,0,0,0,0,0,57,0,10,0,68,0,0,0,79,0,0,76,0,0,0,0,0,0,0,0,0,17,0,65,12,7,0,0,0,0,0,0,0,0,53,59,0,0,0,0,29,0,0,0,0,0,0,0,0,0,0,0,45,0,0,0,0,0,42,47|
27,0,0,49,0,0,19,0,0,0,0,0,0,0,0,0,0,0,0,0,0,0,77,0,59,0,31,0,0,0,0,0,0,0,0,0,0,0,0,0,0,0,0,0,0,0,0,0,0,74,0,0,0,0,0,0,0,0,0,25,0,8,0,0,0,0,0,81,0,0,14,51,48,0,0,0,43,0,24,0,0|
0,39,1,0,0,0,0,62,0,0,0,0,0,0,11,70,0,0,0,7,0,0,0,0,0,0,6,24,14,0,0,0,52,0,0,0,0,0,0,35,8,0,0,0,0,0,33,48,2,0,0,0,55,0,0,45,0,0,0,0,0,0,0,0,0,0,57,0,0,0,0,59,31,0,0,0,0,69,3,0,0|
0,0,0,36,0,0,0,0,20,0,14,7,0,0,0,0,0,46,0,0,0,0,0,0,0,0,0,0,0,0,0,10,0,0,0,0,21,0,0,0,0,0,0,31,58,0,0,0,0,0,78,0,0,0,24,0,28,19,0,0,0,56,73,0,0,0,0,0,0,0,0,0,51,0,0,32,0,0,0,41,0|
0,78,8,0,0,0,0,0,0,0,76,0,0,0,38,0,0,0,0,0,0,0,0,0,65,0,0,0,0,0,75,0,57,0,64,0,56,0,59,0,0,48,14,0,0,32,0,0,0,0,22,0,0,0,52,0,0,0,0,0,0,0,0,0,0,0,0,0,45,0,0,0,0,0,0,0,0,7,0,0,0|];